(set-option :produce-models true)
(set-logic QF_UF)
(declare-fun p11() Bool)
(declare-fun p13() Bool)
(declare-fun p21() Bool)
(declare-fun p7() Bool)
(declare-fun p1() Bool)
(declare-fun p10() Bool)
(declare-fun p5() Bool)
(declare-fun p15() Bool)
(declare-fun p2() Bool)
(declare-fun p24() Bool)
(declare-fun p4() Bool)
(declare-fun p14() Bool)
(declare-fun p17() Bool)
(declare-fun p6() Bool)
(declare-fun p8() Bool)
(declare-fun p20() Bool)
(declare-fun p0() Bool)
(declare-fun p3() Bool)
(declare-fun p18() Bool)
(declare-fun p12() Bool)
(declare-fun p23() Bool)
(declare-fun p19() Bool)
(declare-fun p9() Bool)
(declare-fun p22() Bool)
(declare-fun p16() Bool)
(assert
(and (or p11 p13 (not p21)) (or (not p7) (not p1) p10) (or (not p5) (not p1) (not p15)) (or (not p11) p2 p24) (or (not p4) p14 (not p17)) (or p13 (not p6) (not p7)) (or (not p8) p7 (not p20)) (or (not p24) p10 p15) (or (not p1) p1 (not p0)) (or (not p3) (not p0) (not p18)) (or p18 (not p1) (not p20)) (or p24 p8 p2) (or (not p7) (not p24) (not p21)) (or (not p14) (not p6) (not p3)) (or p14 p11 (not p6)) (or (not p24) (not p12) (not p11)) (or p14 (not p10) p3) (or (not p11) p5 p20) (or p10 (not p3) p3) (or p23 (not p5) (not p5)) (or (not p23) (not p13) (not p0)) (or (not p10) p18 (not p15)) (or (not p17) (not p0) p19) (or (not p7) (not p2) (not p12)) (or (not p4) p7 p9) (or (not p19) p22 (not p20)) (or p0 p21 (not p17)) (or p8 (not p14) p3) (or p14 p7 (not p0)) (or p16 (not p21) p7) (or (not p9) p21 (not p11)) (or p24 p18 (not p10)) (or (not p21) p7 (not p7)) (or p1 (not p3) p17) (or (not p8) p21 p23) (or (not p0) (not p21) p9) (or (not p3) p2 p3) (or (not p4) p8 (not p23)) (or p8 p21 p21) (or p0 p0 (not p4)) (or (not p24) (not p17) (not p19)) (or (not p22) (not p18) (not p8)) (or p23 p15 (not p17)) (or p21 (not p7) p19) (or (not p1) p8 (not p19)) (or (not p14) p7 p9) (or (not p15) (not p23) (not p1)) (or p12 (not p11) p15) (or p1 (not p2) p24) (or p17 p12 p19) (or (not p1) (not p24) (not p6)) (or p7 (not p19) (not p7)) (or p23 (not p21) p5) (or (not p5) (not p2) p3) (or (not p13) (not p18) p17) (or (not p10) (not p20) (not p11)) (or (not p12) p22 p7) (or (not p4) p24 p4) (or p15 p11 p16) (or p0 p2 p13) (or (not p16) (not p11) (not p1)) (or (not p1) p19 p8) (or p3 p5 p3) (or p15 p14 (not p21)) (or p0 p3 p14) (or p4 p20 p19) (or (not p3) p10 (not p9)) (or p3 p17 (not p10)) (or p19 p18 (not p24)) (or (not p0) (not p21) p3) (or p11 (not p3) p24) (or p21 p14 (not p22)) (or p21 p1 p1) (or p17 p3 (not p22)) (or (not p7) (not p24) p17) (or (not p6) (not p20) (not p20)) (or p17 (not p6) p6) (or p17 p2 (not p2)) (or p13 (not p2) p14) (or (not p14) p3 p22) (or p24 (not p15) p20) (or p13 (not p3) (not p17)) (or p0 (not p17) p19) (or p18 p11 (not p4)) (or p18 (not p17) (not p20)) (or p1 (not p17) (not p23)) (or (not p10) p17 p5) (or (not p15) p9 (not p11)) (or p16 p3 p24) (or (not p12) p4 (not p6)) (or (not p23) (not p10) p8) (or p17 (not p10) p1) (or p5 p14 (not p1)) (or (not p2) (not p4) p14) (or p20 p13 p1) (or (not p5) (not p2) p7) (or (not p14) (not p24) p5) (or p6 (not p21) p5) (or p6 (not p24) (not p12)) (or p8 (not p11) (not p14)) (or (not p15) p15 (not p4)) (or p14 (not p6) p23) (or (not p9) (not p12) p6) (or p16 p6 (not p5)) (or p13 (not p0) (not p7)) (or p8 p7 p22) (or p7 p5 (not p16)))
)
(check-sat)
(get-model)
